NAME
* Written by MOSEK version 6.0.0.137
OBJSENSE
    MIN
ROWS
 N  obj
 E  c1
 E  c2
 E  c3
 E  c4
 E  c5
 E  c6
 E  c7
 E  c8
 E  c9
 E  c10
 E  c11
 E  c12
 E  c13
 E  c14
 E  c15
 E  c16
 E  c17
 E  c18
 E  c19
 E  c20
 E  c21
 E  c22
 E  c23
COLUMNS
    x1        obj       2.63e+02
    x1        c1        1
    x1        c2        3
    x1        c3        1
    x1        c4        3
    x1        c5        6
    x1        c6        6
    x1        c7        4
    x1        c22       10
    x1        c23       4
    x2        obj       1.61e+02
    x2        c2        5
    x2        c3        1
    x2        c4        4
    x2        c5        3
    x2        c6        8
    x2        c7        3
    x2        c23       7
    x3        obj       2.12e+02
    x3        c2        2
    x3        c3        6
    x3        c4        4
    x3        c5        7
    x3        c6        10
    x3        c7        3
    x3        c23       7
    x4        obj       2.16e+02
    x4        c2        4
    x4        c3        8
    x4        c4        5
    x4        c5        5
    x4        c6        4
    x4        c7        6
    x4        c23       8
    x5        obj       1.34e+02
    x5        c2        3
    x5        c3        5
    x5        c4        3
    x5        c5        6
    x5        c6        2
    x5        c7        2
    x5        c23       2
    x6        obj       2.53e+02
    x6        c2        4
    x6        c3        3
    x6        c4        9
    x6        c5        6
    x6        c6        9
    x6        c7        4
    x6        c23       5
    x7        obj       1.56e+02
    x7        c2        4
    x7        c3        5
    x7        c4        4
    x7        c5        2
    x7        c6        6
    x7        c7        4
    x7        c23       3
    x8        obj       1.81e+02
    x8        c2        3
    x8        c3        9
    x8        c4        4
    x8        c5        3
    x8        c6        4
    x8        c7        4
    x8        c23       6
    x9        obj       1.53e+02
    x9        c2        7
    x9        c3        4
    x9        c4        2
    x9        c5        5
    x9        c6        6
    x9        c7        3
    x9        c23       5
    x10       obj       1.54e+02
    x10       c2        4
    x10       c3        3
    x10       c4        2
    x10       c5        5
    x10       c6        3
    x10       c7        4
    x10       c23       12
    x11       obj       1.51e+02
    x11       c2        5
    x11       c3        3
    x11       c4        3
    x11       c5        2
    x11       c6        4
    x11       c7        5
    x11       c23       7
    x12       obj       2.18e+02
    x12       c2        11
    x12       c3        4
    x12       c4        7
    x12       c5        9
    x12       c6        1
    x12       c7        4
    x12       c23       4
    x13       obj       1.94e+02
    x13       c2        8
    x13       c3        7
    x13       c4        4
    x13       c5        3
    x13       c6        5
    x13       c7        6
    x13       c23       5
    x14       obj       2.57e+02
    x14       c2        6
    x14       c3        6
    x14       c4        5
    x14       c5        7
    x14       c6        5
    x14       c7        11
    x14       c23       7
    x15       obj       2.92e+02
    x15       c2        3
    x15       c3        3
    x15       c4        12
    x15       c5        10
    x15       c6        6
    x15       c7        4
    x15       c23       7
    x16       obj       2.51e+02
    x16       c8        1
    x16       c9        10
    x16       c10       4
    x16       c11       6
    x16       c12       5
    x16       c13       7
    x16       c14       5
    x16       c22       4
    x16       c23       9
    x17       obj       1.52e+02
    x17       c9        4
    x17       c10       4
    x17       c11       3
    x17       c12       9
    x17       c13       3
    x17       c14       6
    x17       c23       4
    x18       obj       1.16e+02
    x18       c9        2
    x18       c10       3
    x18       c11       3
    x18       c12       7
    x18       c13       1
    x18       c14       3
    x18       c23       7
    x19       obj       1.73e+02
    x19       c9        6
    x19       c10       5
    x19       c11       5
    x19       c12       7
    x19       c13       3
    x19       c14       9
    x19       c23       1
    x20       obj       1.67e+02
    x20       c9        3
    x20       c10       4
    x20       c11       8
    x20       c12       4
    x20       c13       2
    x20       c14       11
    x20       c23       5
    x21       obj       1.63e+02
    x21       c9        7
    x21       c10       2
    x21       c11       5
    x21       c12       6
    x21       c13       2
    x21       c14       8
    x21       c23       7
    x22       obj       1.86e+02
    x22       c9        4
    x22       c10       1
    x22       c11       5
    x22       c12       9
    x22       c13       5
    x22       c14       10
    x22       c23       7
    x23       obj       1.27e+02
    x23       c9        7
    x23       c10       3
    x23       c11       5
    x23       c12       4
    x23       c13       5
    x23       c14       2
    x23       c23       5
    x24       obj       94
    x24       c9        3
    x24       c10       3
    x24       c11       2
    x24       c12       2
    x24       c13       4
    x24       c14       3
    x24       c23       3
    x25       obj       2.3e+02
    x25       c9        9
    x25       c10       5
    x25       c11       7
    x25       c12       9
    x25       c13       10
    x25       c14       5
    x25       c23       8
    x26       obj       1.18e+02
    x26       c9        5
    x26       c10       5
    x26       c11       2
    x26       c12       3
    x26       c13       3
    x26       c14       3
    x26       c23       5
    x27       obj       1.57e+02
    x27       c9        9
    x27       c10       5
    x27       c11       6
    x27       c12       7
    x27       c13       5
    x27       c14       2
    x27       c23       2
    x28       obj       1.57e+02
    x28       c9        5
    x28       c10       5
    x28       c11       6
    x28       c12       5
    x28       c13       2
    x28       c14       5
    x28       c23       8
    x29       obj       1.24e+02
    x29       c9        7
    x29       c10       3
    x29       c11       6
    x29       c12       4
    x29       c13       1
    x29       c14       4
    x29       c23       3
    x30       obj       1.5e+02
    x30       c9        5
    x30       c10       6
    x30       c11       5
    x30       c12       5
    x30       c13       5
    x30       c14       3
    x30       c23       6
    x31       obj       2.53e+02
    x31       c15       1
    x31       c16       7
    x31       c17       5
    x31       c18       5
    x31       c19       3
    x31       c20       7
    x31       c21       8
    x31       c22       5
    x31       c23       3
    x32       obj       1.54e+02
    x32       c16       4
    x32       c17       3
    x32       c18       8
    x32       c19       4
    x32       c20       4
    x32       c21       7
    x32       c23       4
    x33       obj       1.73e+02
    x33       c16       7
    x33       c17       8
    x33       c18       5
    x33       c19       5
    x33       c20       3
    x33       c21       4
    x33       c23       4
    x34       obj       1.9e+02
    x34       c16       5
    x34       c17       9
    x34       c18       4
    x34       c19       9
    x34       c20       1
    x34       c21       4
    x34       c23       6
    x35       obj       1.6e+02
    x35       c16       3
    x35       c17       4
    x35       c18       4
    x35       c19       7
    x35       c21       9
    x35       c23       7
    x36       obj       1.75e+02
    x36       c16       8
    x36       c17       2
    x36       c18       4
    x36       c19       9
    x36       c20       3
    x36       c21       3
    x36       c23       5
    x37       obj       1.86e+02
    x37       c16       8
    x37       c17       9
    x37       c18       3
    x37       c19       4
    x37       c20       4
    x37       c21       5
    x37       c23       4
    x38       obj       1.63e+02
    x38       c16       5
    x38       c17       8
    x38       c18       8
    x38       c19       4
    x38       c20       3
    x38       c21       3
    x38       c23       6
    x39       obj       1.95e+02
    x39       c16       7
    x39       c17       7
    x39       c18       8
    x39       c19       6
    x39       c20       4
    x39       c21       5
    x39       c23       5
    x40       obj       1.51e+02
    x40       c16       2
    x40       c17       6
    x40       c18       4
    x40       c19       4
    x40       c20       5
    x40       c21       6
    x40       c23       3
    x41       obj       1.59e+02
    x41       c16       5
    x41       c17       1
    x41       c18       5
    x41       c19       6
    x41       c20       6
    x41       c21       4
    x41       c23       6
    x42       obj       2.03e+02
    x42       c16       5
    x42       c17       4
    x42       c18       8
    x42       c19       11
    x42       c20       2
    x42       c21       5
    x42       c23       7
    x43       obj       1.49e+02
    x43       c16       5
    x43       c18       8
    x43       c19       7
    x43       c20       4
    x43       c21       4
    x43       c23       3
    x44       obj       1.95e+02
    x44       c16       5
    x44       c17       6
    x44       c18       6
    x44       c19       4
    x44       c20       4
    x44       c21       12
    x44       c23       3
    x45       obj       2.18e+02
    x45       c16       8
    x45       c17       9
    x45       c18       5
    x45       c19       7
    x45       c20       5
    x45       c21       5
    x45       c23       5
RHS
    rhs       c1        23
    rhs       c2        4.37e+02
    rhs       c3        4.04e+02
    rhs       c4        4.15e+02
    rhs       c5        5.35e+02
    rhs       c6        4.56e+02
    rhs       c7        4.17e+02
    rhs       c8        22
    rhs       c9        6.35e+02
    rhs       c10       3.88e+02
    rhs       c11       4.88e+02
    rhs       c12       5.25e+02
    rhs       c13       4.21e+02
    rhs       c14       4.78e+02
    rhs       c15       21
    rhs       c16       5.35e+02
    rhs       c17       4.59e+02
    rhs       c18       5.01e+02
    rhs       c19       4.93e+02
    rhs       c20       3.7e+02
    rhs       c21       5.43e+02
    rhs       c22       4.23e+02
    rhs       c23       1.459e+03
RANGES
BOUNDS
 LI bound     x1        0
 LI bound     x2        0
 LI bound     x3        0
 LI bound     x4        0
 LI bound     x5        0
 LI bound     x6        0
 LI bound     x7        0
 FR bound     x8
 FR bound     x9
 FR bound     x10
 FR bound     x11
 FR bound     x12
 FR bound     x13
 FR bound     x14
 FR bound     x15
 LI bound     x16       0
 LI bound     x17       0
 LI bound     x18       0
 LI bound     x19       0
 LI bound     x20       0
 LI bound     x21       0
 LI bound     x22       0
 FR bound     x23
 FR bound     x24
 FR bound     x25
 FR bound     x26
 FR bound     x27
 FR bound     x28
 FR bound     x29
 FR bound     x30
 LI bound     x31       0
 LI bound     x32       0
 LI bound     x33       0
 LI bound     x34       0
 LI bound     x35       0
 LI bound     x36       0
 LI bound     x37       0
 FR bound     x38
 FR bound     x39
 FR bound     x40
 FR bound     x41
 FR bound     x42
 FR bound     x43
 FR bound     x44
 FR bound     x45
CSECTION      k1        0              QUAD
    x1
    x2
    x3
    x4
    x5
    x6
    x7
    x8
    x9
    x10
    x11
    x12
    x13
    x14
    x15
CSECTION      k2        0              QUAD
    x16
    x17
    x18
    x19
    x20
    x21
    x22
    x23
    x24
    x25
    x26
    x27
    x28
    x29
    x30
CSECTION      k3        0              QUAD
    x31
    x32
    x33
    x34
    x35
    x36
    x37
    x38
    x39
    x40
    x41
    x42
    x43
    x44
    x45
ENDATA
